
param nuts := 4
;

param mixes := 2
;

param cost :=
1 3.5
2 5
3 7.5
4 9
;

param allergies :=
1 5
2 4
3 3
4 1
;

param total_max_amount := 10
;

param upper_bounds :	1	2:=
1	0.5	1
2	1	1
3	1	1
4	1	1
;

param lower_bounds :	1	2:=
1	0	0
2	0.15	0.3
3	0.1	0.2
4	0	0.3
;

param mixes_max_amount := 
1 6
2 6
;

param max_allergy :=
1 3
2 3
;
